outputs/case_129.model.txt
handling_system_executed_flag = True
internal_control_executed_flag = True
audit_system_executed_flag = True
handling_system_established_flag = True
audit_system_established_flag = True
internal_control_established_flag = True
internal_control_executed = True
handling_system_executed = True
penalty = False
audit_system_compliance = True
internal_control_compliance = True
audit_system_executed = True
legal_requirement_met = True
internal_control_established = True
audit_system_established = True
internal_control_audit_handling_compliance = True
handling_system_compliance = True
handling_system_established = True